(declare-fun a () Real)
(declare-fun b () Real)
(declare-fun c () Real)
(declare-fun d () Real)
(declare-fun e () Real)
(declare-fun f () Real)
(declare-fun h () Real)
(assert (forall ((g Real)) (and (= (= g f) (= g e)) (= (/ b d) h) (> (/ a c) h))))
(assert (= (/ a c) (/ b d)))
(check-sat)
